1943.28
0 20 82 19 83 30 0 
0 119 117 131 116 115 113 129 128 127 126 112 125 111 110 122 124 81 0 
0 21 90 89 87 88 2 93 96 97 98 100 99 36 35 101 104 103 56 57 55 54 53 102 58 48 86 84 85 106 107 108 109 0 
0 132 120 114 0 
0 46 118 17 18 71 66 74 63 67 133 80 68 69 70 49 62 50 51 61 59 31 65 130 0 
0 91 22 24 23 72 73 47 75 1 32 134 76 77 64 78 79 34 60 26 25 27 28 29 92 16 13 15 14 12 11 10 9 8 5 4 6 7 42 41 3 40 43 44 39 38 37 45 94 105 33 0 
0 52 95 123 121 0 
